33D32945 STP File, STP Format Version 1.0

SECTION Comment
Name    "Teste01"
Creator "Calvin"
Remark  "Sparse graph with random weights"
END

SECTION Graph
Nodes 22	
Edges 22
E 1 2 1
E 1 3 1
E 1 4 1
E 2 5 1
E 2 6 1
E 2 7 1
E 6 10 1
E 6 11 1
E 6 12 1
E 3 8 1
E 3 9 1
E 8 13 1
E 13 17 1
E 13 18 1
E 9 14 1
E 9 15 1
E 9 16 1
E 16 19 1
E 16 20 1
E 11 21 0.1
E 21 22 0.5
E 22 1 1
END

SECTION Terminals
Terminals 8
T 1
T 4
T 7
T 11
T 18
T 17
T 14
T 19
END

EOF	
